p cnf 12 50 
-2 1 4 0
-6 -9 12 0
-7 9 5 0
-6 12 -11 0
-11 4 6 0
1 -6 -8 0
5 -6 -2 0
3 -9 10 0
-5 -6 -3 0
-2 3 -7 0
-1 -12 -6 0
-7 -3 12 0
12 10 11 0
12 -1 11 0
6 8 -2 0
-8 -4 5 0
8 2 9 0
8 2 -1 0
-4 -1 -7 0
-3 -11 8 0
-5 -8 -6 0
9 3 -6 0
-8 -12 11 0
4 2 -9 0
-12 -2 9 0
3 -2 -1 0
9 -10 6 0
-1 -5 -10 0
-11 4 7 0
-4 2 10 0
12 2 -5 0
-5 -11 -3 0
-5 -10 -4 0
-2 7 10 0
7 -8 10 0
10 12 4 0
8 2 -7 0
-4 12 -5 0
-5 2 -9 0
7 8 -11 0
1 -8 12 0
11 12 -10 0
-7 1 -8 0
-7 12 11 0
-1 -7 -3 0
-3 -12 1 0
11 -7 3 0
6 -7 -9 0
6 9 7 0
-1 -12 10 0
